(set-info :source |printed by MathSAT|)
(declare-fun call_mesi.flby3 () Int)
(declare-fun param_etat_me1 () Bool)
(declare-fun call_mesi.ite19 () Int)
(declare-fun call_mesi.garde_me1 () Bool)
(declare-fun call_excludes4.excludes () Bool)
(declare-fun call_mesi.ite4 () Int)
(declare-fun call_mesi.ite24 () Int)
(declare-fun call_mesi.ite31 () Int)
(declare-fun call_mesi.ite9 () Int)
(declare-fun _OK_ () Bool)
(declare-fun call_mesi.ite20 () Int)
(declare-fun call_mesi.ite14 () Int)
(declare-fun call_mesi.ite8 () Int)
(declare-fun call_mesi.ite23 () Int)
(declare-fun call_mesi.ite7 () Int)
(declare-fun call_mesi.shared_me () Int)
(declare-fun call_mesi.ite16 () Int)
(declare-fun call_mesi.garde_me4 () Bool)
(declare-fun call_mesi.ite13 () Int)
(declare-fun call_mesi.ite22 () Int)
(declare-fun flby () Bool)
(declare-fun call_mesi.ite6 () Int)
(declare-fun call_mesi.flby4 () Int)
(declare-fun call_mesi.ite25 () Int)
(declare-fun call_mesi.ite5 () Int)
(declare-fun call_mesi.ite26 () Int)
(declare-fun call_mesi.ite21 () Int)
(declare-fun call_mesi.ite2 () Int)
(declare-fun param_etat_me3 () Bool)
(declare-fun call_mesi.modified_me () Int)
(declare-fun call_mesi.exclusive_me () Int)
(declare-fun call_mesi.ite15 () Int)
(declare-fun exclusive_me () Int)
(declare-fun call_mesi.garde_me3 () Bool)
(declare-fun call_mesi.ite18 () Int)
(declare-fun env () Bool)
(declare-fun call_mesi.ite29 () Int)
(declare-fun call_mesi.ite17 () Int)
(declare-fun invalid_me () Int)
(declare-fun call_mesi.invalid_me () Int)
(declare-fun call_mesi.ite28 () Int)
(declare-fun param_etat_me2 () Bool)
(declare-fun call_mesi.ite11 () Int)
(declare-fun call_Sofar.flby () Bool)
(declare-fun call_mesi.ite30 () Int)
(declare-fun call_mesi.ite () Int)
(declare-fun call_mesi.ite10 () Int)
(declare-fun shared_me () Int)
(declare-fun call_mesi.flby () Int)
(declare-fun call_Sofar.Sofar () Bool)
(declare-fun call_mesi.flby2 () Int)
(declare-fun call_mesi.ite3 () Int)
(declare-fun call_mesi.ite27 () Int)
(declare-fun modified_me () Int)
(declare-fun param_etat_me4 () Bool)
(declare-fun call_mesi.ite12 () Int)
(declare-fun call_mesi.ite32 () Int)
(define-fun .def_821 () Bool (= call_Sofar.flby call_Sofar.Sofar))
(define-fun .def_816 () Bool (and param_etat_me4 param_etat_me3))
(define-fun .def_811 () Bool (and param_etat_me1 param_etat_me2))
(define-fun .def_810 () Bool (and param_etat_me3 param_etat_me1))
(define-fun .def_812 () Bool (or .def_810 .def_811))
(define-fun .def_809 () Bool (and param_etat_me4 param_etat_me1))
(define-fun .def_813 () Bool (or .def_809 .def_812))
(define-fun .def_808 () Bool (and param_etat_me3 param_etat_me2))
(define-fun .def_814 () Bool (or .def_808 .def_813))
(define-fun .def_807 () Bool (and param_etat_me4 param_etat_me2))
(define-fun .def_815 () Bool (or .def_807 .def_814))
(define-fun .def_817 () Bool (or .def_815 .def_816))
(define-fun .def_818 () Bool (not .def_817))
(define-fun .def_819 () Bool (= call_excludes4.excludes .def_818))
(define-fun .def_805 () Bool (= call_mesi.flby4 call_mesi.invalid_me))
(define-fun .def_803 () Bool (= call_mesi.flby3 call_mesi.shared_me))
(define-fun .def_801 () Bool (= call_mesi.flby2 call_mesi.exclusive_me))
(define-fun .def_799 () Bool (= call_mesi.flby call_mesi.modified_me))
(define-fun .def_795 () Bool (= call_mesi.ite30 call_mesi.ite31))
(define-fun .def_796 () Bool (or param_etat_me2 .def_795))
(define-fun .def_792 () Bool (= call_mesi.ite31 call_mesi.ite26))
(define-fun .def_774 () Bool (not param_etat_me2))
(define-fun .def_793 () Bool (or .def_774 .def_792))
(define-fun .def_788 () Bool (= call_mesi.ite22 call_mesi.ite23))
(define-fun .def_789 () Bool (or param_etat_me2 .def_788))
(define-fun .def_785 () Bool (= call_mesi.ite23 call_mesi.ite18))
(define-fun .def_786 () Bool (or .def_774 .def_785))
(define-fun .def_781 () Bool (= call_mesi.ite14 call_mesi.ite15))
(define-fun .def_782 () Bool (or param_etat_me2 .def_781))
(define-fun .def_778 () Bool (= call_mesi.ite15 call_mesi.ite10))
(define-fun .def_779 () Bool (or .def_774 .def_778))
(define-fun .def_773 () Bool (= call_mesi.ite7 call_mesi.ite2))
(define-fun .def_775 () Bool (or .def_773 .def_774))
(define-fun .def_769 () Bool (= call_mesi.ite6 call_mesi.ite7))
(define-fun .def_771 () Bool (or .def_769 param_etat_me2))
(define-fun .def_776 () Bool (and .def_771 .def_775))
(define-fun .def_780 () Bool (and .def_776 .def_779))
(define-fun .def_783 () Bool (and .def_780 .def_782))
(define-fun .def_787 () Bool (and .def_783 .def_786))
(define-fun .def_790 () Bool (and .def_787 .def_789))
(define-fun .def_794 () Bool (and .def_790 .def_793))
(define-fun .def_797 () Bool (and .def_794 .def_796))
(define-fun .def_765 () Bool (= call_mesi.ite32 call_mesi.ite31))
(define-fun .def_766 () Bool (or param_etat_me1 .def_765))
(define-fun .def_761 () Bool (= call_mesi.ite25 call_mesi.ite32))
(define-fun .def_739 () Bool (not param_etat_me1))
(define-fun .def_762 () Bool (or .def_739 .def_761))
(define-fun .def_756 () Bool (= call_mesi.ite24 call_mesi.ite23))
(define-fun .def_757 () Bool (or param_etat_me1 .def_756))
(define-fun .def_752 () Bool (= call_mesi.ite17 call_mesi.ite24))
(define-fun .def_753 () Bool (or .def_739 .def_752))
(define-fun .def_747 () Bool (= call_mesi.ite16 call_mesi.ite15))
(define-fun .def_748 () Bool (or param_etat_me1 .def_747))
(define-fun .def_743 () Bool (= call_mesi.ite9 call_mesi.ite16))
(define-fun .def_744 () Bool (or .def_739 .def_743))
(define-fun .def_738 () Bool (= call_mesi.ite call_mesi.ite8))
(define-fun .def_740 () Bool (or .def_738 .def_739))
(define-fun .def_735 () Bool (= call_mesi.ite8 call_mesi.ite7))
(define-fun .def_737 () Bool (or .def_735 param_etat_me1))
(define-fun .def_741 () Bool (and .def_737 .def_740))
(define-fun .def_745 () Bool (and .def_741 .def_744))
(define-fun .def_749 () Bool (and .def_745 .def_748))
(define-fun .def_754 () Bool (and .def_749 .def_753))
(define-fun .def_758 () Bool (and .def_754 .def_757))
(define-fun .def_763 () Bool (and .def_758 .def_762))
(define-fun .def_767 () Bool (and .def_763 .def_766))
(define-fun .def_731 () Bool (= env call_Sofar.Sofar))
(define-fun .def_728 () Bool (= invalid_me call_mesi.invalid_me))
(define-fun .def_724 () Bool (= shared_me call_mesi.shared_me))
(define-fun .def_720 () Bool (= exclusive_me call_mesi.exclusive_me))
(define-fun .def_716 () Bool (= modified_me call_mesi.modified_me))
(define-fun .def_710 () Bool (= call_mesi.ite29 call_mesi.ite30))
(define-fun .def_711 () Bool (or param_etat_me3 .def_710))
(define-fun .def_707 () Bool (= call_mesi.ite27 call_mesi.ite30))
(define-fun .def_688 () Bool (not param_etat_me3))
(define-fun .def_708 () Bool (or .def_688 .def_707))
(define-fun .def_702 () Bool (= call_mesi.ite21 call_mesi.ite22))
(define-fun .def_703 () Bool (or param_etat_me3 .def_702))
(define-fun .def_699 () Bool (= call_mesi.ite19 call_mesi.ite22))
(define-fun .def_700 () Bool (or .def_688 .def_699))
(define-fun .def_695 () Bool (= call_mesi.ite13 call_mesi.ite14))
(define-fun .def_696 () Bool (or param_etat_me3 .def_695))
(define-fun .def_692 () Bool (= call_mesi.ite11 call_mesi.ite14))
(define-fun .def_693 () Bool (or .def_688 .def_692))
(define-fun .def_687 () Bool (= call_mesi.ite3 call_mesi.ite6))
(define-fun .def_689 () Bool (or .def_687 .def_688))
(define-fun .def_684 () Bool (= call_mesi.ite5 call_mesi.ite6))
(define-fun .def_686 () Bool (or .def_684 param_etat_me3))
(define-fun .def_690 () Bool (and .def_686 .def_689))
(define-fun .def_694 () Bool (and .def_690 .def_693))
(define-fun .def_697 () Bool (and .def_694 .def_696))
(define-fun .def_701 () Bool (and .def_697 .def_700))
(define-fun .def_704 () Bool (and .def_701 .def_703))
(define-fun .def_709 () Bool (and .def_704 .def_708))
(define-fun .def_712 () Bool (and .def_709 .def_711))
(define-fun .def_680 () Bool (not env))
(define-fun .def_681 () Bool (or flby .def_680))
(define-fun .def_682 () Bool (= _OK_ .def_681))
(define-fun .def_713 () Bool (and .def_682 .def_712))
(define-fun .def_717 () Bool (and .def_713 .def_716))
(define-fun .def_721 () Bool (and .def_717 .def_720))
(define-fun .def_725 () Bool (and .def_721 .def_724))
(define-fun .def_729 () Bool (and .def_725 .def_728))
(define-fun .def_732 () Bool (and .def_729 .def_731))
(define-fun .def_768 () Bool (and .def_732 .def_767))
(define-fun .def_798 () Bool (and .def_768 .def_797))
(define-fun .def_800 () Bool (and .def_798 .def_799))
(define-fun .def_802 () Bool (and .def_800 .def_801))
(define-fun .def_804 () Bool (and .def_802 .def_803))
(define-fun .def_806 () Bool (and .def_804 .def_805))
(define-fun .def_820 () Bool (and .def_806 .def_819))
(define-fun .def_822 () Bool (and .def_820 .def_821))
(define-fun .def_676 () Bool (= call_excludes4.excludes call_Sofar.flby))
(define-fun .def_672 () Bool (= call_mesi.flby4 3))
(define-fun .def_669 () Bool (= call_mesi.flby3 0))
(define-fun .def_666 () Bool (= call_mesi.flby2 0))
(define-fun .def_663 () Bool (= call_mesi.flby 0))
(define-fun .def_658 () Bool (= call_mesi.ite20 0))
(define-fun .def_653 () Bool (not call_mesi.garde_me4))
(define-fun .def_659 () Bool (or .def_653 .def_658))
(define-fun .def_655 () Bool (= call_mesi.ite4 0))
(define-fun .def_656 () Bool (or .def_653 .def_655))
(define-fun .def_651 () Bool (= call_mesi.ite12 1))
(define-fun .def_654 () Bool (or .def_651 .def_653))
(define-fun .def_657 () Bool (and .def_654 .def_656))
(define-fun .def_660 () Bool (and .def_657 .def_659))
(define-fun .def_647 () Bool (= call_mesi.ite19 0))
(define-fun .def_640 () Bool (not call_mesi.garde_me3))
(define-fun .def_648 () Bool (or .def_640 .def_647))
(define-fun .def_643 () Bool (= call_mesi.ite3 0))
(define-fun .def_644 () Bool (or .def_640 .def_643))
(define-fun .def_638 () Bool (= call_mesi.ite11 1))
(define-fun .def_641 () Bool (or .def_638 .def_640))
(define-fun .def_645 () Bool (and .def_641 .def_644))
(define-fun .def_649 () Bool (and .def_645 .def_648))
(define-fun .def_633 () Bool (= call_mesi.ite 0))
(define-fun .def_630 () Bool (not call_mesi.garde_me1))
(define-fun .def_634 () Bool (or .def_630 .def_633))
(define-fun .def_628 () Bool (= call_mesi.ite9 0))
(define-fun .def_631 () Bool (or .def_628 .def_630))
(define-fun .def_635 () Bool (and .def_631 .def_634))
(define-fun .def_622 () Bool (= call_mesi.ite28 call_mesi.ite29))
(define-fun .def_608 () Bool (not param_etat_me4))
(define-fun .def_623 () Bool (or .def_608 .def_622))
(define-fun .def_617 () Bool (= call_mesi.ite20 call_mesi.ite21))
(define-fun .def_618 () Bool (or .def_608 .def_617))
(define-fun .def_612 () Bool (= call_mesi.ite4 call_mesi.ite5))
(define-fun .def_613 () Bool (or .def_608 .def_612))
(define-fun .def_606 () Bool (= call_mesi.ite12 call_mesi.ite13))
(define-fun .def_609 () Bool (or .def_606 .def_608))
(define-fun .def_614 () Bool (and .def_609 .def_613))
(define-fun .def_619 () Bool (and .def_614 .def_618))
(define-fun .def_624 () Bool (and .def_619 .def_623))
(define-fun .def_626 () Bool (and .def_624 flby))
(define-fun .def_636 () Bool (and .def_626 .def_635))
(define-fun .def_650 () Bool (and .def_636 .def_649))
(define-fun .def_661 () Bool (and .def_650 .def_660))
(define-fun .def_664 () Bool (and .def_661 .def_663))
(define-fun .def_667 () Bool (and .def_664 .def_666))
(define-fun .def_670 () Bool (and .def_667 .def_669))
(define-fun .def_673 () Bool (and .def_670 .def_672))
(define-fun .def_677 () Bool (and .def_673 .def_676))
(define-fun .def_823 () Bool (and .def_677 .def_822))
(assert .def_823)
